# Objective value = 5.0000000000000391e+01
I0(4) 0
B1(2) 0
I2(4) 0
I3(4) 1
B4(2) 0
B5(2) 0
B6(2) 0
I7(4) 0
I8(4) 0
I9(4) 0
B10(2) 0
B11(2) 0
B12(2) 0
I13(4) 0
I14(4) 0
I15(4) 0
B16(2) 0
B17(2) 0
B18(2) 0
I19(4) 0
I20(4) 0
I21(4) 0
B22(2) 0
B23(2) 0
B24(2) 0
I25(4) 0
I26(4) 1
I27(4) 40
B28(2) 0
B29(2) 0
B30(2) 0
I31(4) 1
I32(4) 0
I33(4) 0
B34(2) 0
B35(2) 0
B36(2) 1
I37(4) 0
I38(4) 1
I39(4) 1
B40(2) 0
B41(2) 1
B42(2) 1
I43(4) 0
I44(4) 0
I45(4) 3
B46(2) 0
B47(2) 0
B48(2) 0
I49(4) 0
I50(4) 0
I51(4) 0
B52(2) 0
B53(2) 0
B54(2) 0
I55(4) 0
I56(4) 0
I57(4) 0
B58(2) 0
B59(2) 0
B60(2) 0
I61(4) 0
I62(4) 1
I63(4) 0
B64(2) 0
B65(2) 0
B66(2) 0
I67(4) 0
I68(4) 1
I69(4) 0
B70(2) 0
B71(2) 0
B72(2) 0
I73(4) 0
I74(4) 1
I75(4) 0
B76(2) 0
B77(2) 0
B78(2) 0
B79(2) 0
B80(2) 0
B81(2) 0
I82(4) 0
I83(4) 0
I84(4) 0
I85(4) 0
B86(2) 0
B87(2) 0
B88(2) 0
B89(2) 0
B90(2) 0
B91(2) 0
I92(4) 0
I93(4) 1
I94(4) 0
I95(4) 1
B96(2) 0
B97(2) 0
B98(2) 0
B99(2) 0
B100(2) 0
B101(2) 0
I102(4) 0
I103(4) 1
I104(4) 0
I105(4) 1
B106(2) 0
B107(2) 0
B108(2) 0
B109(2) 0
B110(2) 0
B111(2) 0
I112(4) 0
I113(4) 0
I114(4) 0
I115(4) 0
B116(2) 0
B117(2) 0
B118(2) 0
B119(2) 0
B120(2) 0
B121(2) 0
I122(4) 0
I123(4) 0
I124(4) 0
I125(4) 0
B126(2) 0
B127(2) 0
B128(2) 0
B129(2) 0
B130(2) 0
B131(2) 0
I132(4) 0
I133(4) 0
I134(4) 0
I135(4) 0
B136(2) 0
B137(2) 0
B138(2) 0
I139(4) 0
I140(4) 1
I141(4) 0
B142(2) 0
B143(2) 0
B144(2) 0
B145(2) 0
B146(2) 0
B147(2) 0
I148(4) 0
I149(4) 0
I150(4) 0
I151(4) 0
B152(2) 0
B153(2) 0
B154(2) 0
B155(2) 0
B156(2) 0
B157(2) 0
B158(2) 0
B159(2) 0
B160(2) 0
B161(2) 0
I162(4) 0
I163(4) 0
I164(4) 0
I165(4) 0
I166(4) 1
B167(2) 0
B168(2) 0
B169(2) 0
B170(2) 0
B171(2) 0
B172(2) 0
B173(2) 0
B174(2) 0
B175(2) 0
B176(2) 0
I177(4) 0
I178(4) 0
I179(4) 0
I180(4) 0
I181(4) 1
B182(2) 0
B183(2) 0
B184(2) 0
B185(2) 0
B186(2) 0
B187(2) 0
B188(2) 0
B189(2) 0
I190(4) 0
I191(4) 0
I192(4) 0
I193(4) 0
I194(4) 0
B195(2) 0
B196(2) 0
B197(2) 0
B198(2) 0
B199(2) 0
B200(2) 0
B201(2) 0
B202(2) 0
I203(4) 0
I204(4) 0
I205(4) 0
I206(4) 0
I207(4) 0
B208(2) 0
B209(2) 0
B210(2) 0
B211(2) 0
B212(2) 0
B213(2) 0
B214(2) 0
B215(2) 0
I216(4) 0
I217(4) 0
I218(4) 0
I219(4) 0
I220(4) 0
B221(2) 0
B222(2) 0
B223(2) 0
B224(2) 0
I225(4) 1
I226(4) 1
I227(4) 0
I228(4) 0
B229(2) 0
B230(2) 0
B231(2) 0
B232(2) 0
B233(2) 0
B234(2) 0
I235(4) 1
I236(4) 1
I237(4) 0
I238(4) 0
B239(2) 0
B240(2) 0
B241(2) 0
B242(2) 0
B243(2) 0
B244(2) 0
I245(4) 0
I246(4) 0
I247(4) 1
I248(4) 1
B249(2) 0
B250(2) 0
B251(2) 0
B252(2) 0
B253(2) 0
B254(2) 0
I255(4) 0
I256(4) 0
I257(4) 0
I258(4) 0
B259(2) 0
B260(2) 0
B261(2) 0
B262(2) 0
B263(2) 0
B264(2) 0
I265(4) 0
I266(4) 0
I267(4) 0
I268(4) 0
B269(2) 0
B270(2) 0
B271(2) 0
B272(2) 0
B273(2) 0
B274(2) 0
I275(4) 0
I276(4) 0
I277(4) 0
I278(4) 0
B279(2) 0
B280(2) 0
B281(2) 0
B282(2) 0
B283(2) 0
B284(2) 0
I285(4) 0
I286(4) 0
I287(4) 0
I288(4) 0
B289(2) 0
B290(2) 0
B291(2) 0
I292(4) 1
I293(4) 1
I294(4) 1
B295(2) 0
B296(2) 0
B297(2) 0
I298(4) 0
I299(4) 0
I300(4) 1
B301(2) 0
B302(2) 0
B303(2) 0
I304(4) 0
I305(4) 0
I306(4) 1
B307(2) 0
B308(2) 0
B309(2) 0
B310(2) 0
B311(2) 0
B312(2) 0
B313(2) 0
B314(2) 0
B315(2) 0
B316(2) 0
B317(2) 0
B318(2) 0
I319(4) 0
I320(4) 0
I321(4) 0
I322(4) 0
I323(4) 0
I324(4) 0
I325(4) 0
B326(2) 0
B327(2) 0
B328(2) 0
B329(2) 0
B330(2) 0
B331(2) 0
B332(2) 0
B333(2) 0
B334(2) 0
B335(2) 0
B336(2) 0
B337(2) 0
B338(2) 0
B339(2) 0
B340(2) 0
B341(2) 0
B342(2) 0
B343(2) 0
B344(2) 0
B345(2) 0
B346(2) 0
B347(2) 0
B348(2) 0
B349(2) 0
B350(2) 0
B351(2) 0
B352(2) 0
B353(2) 0
B354(2) 0
B355(2) 0
B356(2) 0
B357(2) 0
B358(2) 0
B359(2) 0
I360(4) 0
I361(4) 0
I362(4) 0
I363(4) 0
I364(4) 0
I365(4) 0
I366(4) 0
I367(4) 0
I368(4) 0
I369(4) 0
I370(4) 0
B371(2) 0
B372(2) 0
B373(2) 0
B374(2) 0
B375(2) 0
B376(2) 0
B377(2) 0
B378(2) 0
B379(2) 0
B380(2) 0
B381(2) 0
B382(2) 0
B383(2) 0
B384(2) 0
B385(2) 0
B386(2) 0
B387(2) 0
B388(2) 0
B389(2) 0
B390(2) 0
B391(2) 0
B392(2) 0
B393(2) 0
B394(2) 0
B395(2) 0
B396(2) 0
B397(2) 0
B398(2) 0
B399(2) 0
B400(2) 0
B401(2) 0
B402(2) 0
B403(2) 0
B404(2) 0
B405(2) 0
B406(2) 0
B407(2) 0
B408(2) 0
B409(2) 0
B410(2) 0
B411(2) 0
B412(2) 0
B413(2) 0
B414(2) 0
B415(2) 0
B416(2) 0
B417(2) 0
B418(2) 0
B419(2) 0
B420(2) 0
B421(2) 0
B422(2) 0
I423(4) 0
I424(4) 0
I425(4) 0
I426(4) 0
I427(4) 0
I428(4) 0
I429(4) 0
I430(4) 0
I431(4) 0
I432(4) 0
I433(4) 0
B434(2) 0
B435(2) 0
B436(2) 0
B437(2) 0
B438(2) 0
B439(2) 0
B440(2) 0
B441(2) 0
B442(2) 0
B443(2) 0
B444(2) 0
B445(2) 0
B446(2) 0
B447(2) 0
B448(2) 0
B449(2) 0
B450(2) 0
B451(2) 0
B452(2) 0
B453(2) 0
B454(2) 0
B455(2) 0
B456(2) 0
B457(2) 0
B458(2) 0
B459(2) 0
B460(2) 0
B461(2) 0
B462(2) 0
B463(2) 0
B464(2) 0
B465(2) 0
B466(2) 0
B467(2) 0
B468(2) 0
B469(2) 0
B470(2) 0
B471(2) 0
B472(2) 0
B473(2) 0
B474(2) 0
B475(2) 0
B476(2) 0
B477(2) 0
B478(2) 0
B479(2) 0
B480(2) 0
B481(2) 0
B482(2) 0
B483(2) 0
B484(2) 0
B485(2) 0
B486(2) 0
B487(2) 0
B488(2) 0
I489(4) 0
I490(4) 0
I491(4) 0
I492(4) 0
I493(4) 0
I494(4) 0
I495(4) 0
I496(4) 0
I497(4) 0
I498(4) 0
I499(4) 0
B500(2) 0
B501(2) 0
B502(2) 0
B503(2) 0
B504(2) 0
B505(2) 0
B506(2) 0
B507(2) 0
B508(2) 0
B509(2) 0
B510(2) 0
B511(2) 0
B512(2) 0
B513(2) 0
B514(2) 0
B515(2) 0
B516(2) 0
B517(2) 0
B518(2) 0
B519(2) 0
B520(2) 0
B521(2) 0
B522(2) 0
B523(2) 0
B524(2) 0
B525(2) 0
B526(2) 0
B527(2) 0
B528(2) 0
B529(2) 0
B530(2) 0
B531(2) 0
B532(2) 0
B533(2) 0
B534(2) 0
B535(2) 0
B536(2) 0
B537(2) 0
B538(2) 0
B539(2) 0
B540(2) 0
B541(2) 0
B542(2) 0
B543(2) 0
B544(2) 0
B545(2) 0
B546(2) 0
B547(2) 0
B548(2) 0
B549(2) 0
B550(2) 0
B551(2) 0
B552(2) 0
B553(2) 0
B554(2) 0
I555(4) 0
I556(4) 0
I557(4) 0
I558(4) 0
I559(4) 0
I560(4) 0
I561(4) 0
I562(4) 0
I563(4) 0
I564(4) 0
I565(4) 0
B566(2) 0
B567(2) 0
B568(2) 0
B569(2) 0
B570(2) 0
B571(2) 0
B572(2) 0
B573(2) 0
B574(2) 0
B575(2) 0
B576(2) 0
B577(2) 0
B578(2) 0
B579(2) 0
B580(2) 0
B581(2) 0
B582(2) 0
B583(2) 0
B584(2) 0
B585(2) 0
B586(2) 0
B587(2) 0
B588(2) 0
B589(2) 0
B590(2) 0
B591(2) 0
B592(2) 0
B593(2) 0
B594(2) 0
B595(2) 0
B596(2) 0
B597(2) 0
B598(2) 0
B599(2) 0
B600(2) 0
B601(2) 0
B602(2) 0
B603(2) 0
B604(2) 0
B605(2) 0
B606(2) 0
B607(2) 0
B608(2) 0
B609(2) 0
B610(2) 0
B611(2) 0
B612(2) 0
B613(2) 0
B614(2) 0
B615(2) 0
B616(2) 0
B617(2) 0
B618(2) 0
B619(2) 0
B620(2) 0
I621(4) 0
I622(4) 0
I623(4) 0
I624(4) 0
I625(4) 0
I626(4) 0
I627(4) 0
I628(4) 0
I629(4) 0
I630(4) 0
I631(4) 0
B632(2) 0
B633(2) 0
B634(2) 0
B635(2) 0
B636(2) 0
B637(2) 0
B638(2) 0
B639(2) 0
B640(2) 0
B641(2) 0
B642(2) 0
B643(2) 0
I644(4) 0
I645(4) 0
I646(4) 0
I647(4) 4
I648(4) 4
I649(4) 4
I650(4) 4
B651(2) 0
B652(2) 0
B653(2) 0
B654(2) 0
B655(2) 0
B656(2) 0
I657(4) 0
I658(4) 0
I659(4) 0
I660(4) 3
B661(2) 0
B662(2) 0
B663(2) 0
B664(2) 0
B665(2) 0
B666(2) 0
B667(2) 0
I668(4) 0
I669(4) 0
I670(4) 0
I671(4) 0
I672(4) 0
B673(2) 0
B674(2) 0
B675(2) 0
B676(2) 0
B677(2) 0
B678(2) 0
B679(2) 0
B680(2) 0
B681(2) 0
B682(2) 0
B683(2) 0
B684(2) 0
B685(2) 0
B686(2) 0
B687(2) 0
I688(4) 0
I689(4) 0
I690(4) 0
I691(4) 0
I692(4) 0
I693(4) 0
B694(2) 0
B695(2) 0
B696(2) 0
B697(2) 0
B698(2) 0
B699(2) 0
B700(2) 0
B701(2) 0
B702(2) 0
B703(2) 0
B704(2) 0
B705(2) 0
B706(2) 0
B707(2) 0
B708(2) 0
I709(4) 0
I710(4) 0
I711(4) 0
I712(4) 0
I713(4) 0
I714(4) 0
B715(2) 0
B716(2) 0
B717(2) 0
B718(2) 0
B719(2) 0
B720(2) 0
B721(2) 0
B722(2) 0
B723(2) 0
B724(2) 0
I725(4) 0
I726(4) 0
I727(4) 0
I728(4) 0
I729(4) 0
B730(2) 0
B731(2) 0
B732(2) 0
B733(2) 0
B734(2) 0
B735(2) 0
I736(4) 0
I737(4) 0
I738(4) 0
I739(4) 0
B740(2) 0
B741(2) 0
B742(2) 0
B743(2) 0
B744(2) 0
B745(2) 0
I746(4) 0
I747(4) 0
I748(4) 0
I749(4) 0
B750(2) 0
B751(2) 0
B752(2) 0
B753(2) 0
B754(2) 0
B755(2) 0
I756(4) 0
I757(4) 0
I758(4) 0
I759(4) 0
B760(2) 0
B761(2) 0
B762(2) 0
B763(2) 0
B764(2) 0
B765(2) 0
I766(4) 40
I767(4) 0
I768(4) 0
I769(4) 0
B770(2) 0
B771(2) 0
B772(2) 0
I773(4) 0
I774(4) 0
I775(4) 0
B776(2) 0
B777(2) 0
B778(2) 0
B779(2) 0
B780(2) 0
B781(2) 0
I782(4) 0
I783(4) 1
I784(4) 1
I785(4) 0
B786(2) 0
B787(2) 0
B788(2) 0
B789(2) 0
B790(2) 0
B791(2) 0
B792(2) 0
B793(2) 0
B794(2) 0
B795(2) 0
I796(4) 0
I797(4) 0
I798(4) 0
I799(4) 0
I800(4) 0
B801(2) 0
B802(2) 0
B803(2) 0
B804(2) 0
B805(2) 0
B806(2) 0
I807(4) 0
I808(4) 1
I809(4) 1
I810(4) 0
B811(2) 0
B812(2) 0
B813(2) 0
B814(2) 0
B815(2) 0
B816(2) 0
B817(2) 0
B818(2) 0
B819(2) 0
B820(2) 0
I821(4) 0
I822(4) 0
I823(4) 0
I824(4) 0
I825(4) 0
B826(2) 0
B827(2) 0
B828(2) 0
B829(2) 0
B830(2) 0
B831(2) 0
B832(2) 0
B833(2) 0
B834(2) 0
B835(2) 0
I836(4) 0
I837(4) 0
I838(4) 0
I839(4) 0
I840(4) 0
B841(2) 0
B842(2) 0
B843(2) 0
B844(2) 0
B845(2) 0
B846(2) 0
I847(4) 0
I848(4) 0
I849(4) 0
I850(4) 0
B851(2) 0
B852(2) 0
B853(2) 0
B854(2) 0
I855(4) 2
I856(4) 2
I857(4) 2
I858(4) 2
B859(2) 1
B860(2) 0
B861(2) 1
I862(4) 0
I863(4) 4
I864(4) 0
B865(2) 0
B866(2) 0
B867(2) 1
B868(2) 0
B869(2) 0
I870(4) 0
I871(4) 1
I872(4) 1
I873(4) 0
B874(2) 0
B875(2) 1
B876(2) 0
B877(2) 1
B878(2) 0
I879(4) 0
I880(4) 0
I881(4) 3
I882(4) 1
B883(2) 0
B884(2) 0
B885(2) 0
B886(2) 0
B887(2) 0
I888(4) 0
I889(4) 0
I890(4) 0
I891(4) 0
B892(2) 0
B893(2) 1
B894(2) 0
B895(2) 0
B896(2) 0
B897(2) 0
I898(4) 0
I899(4) 0
I900(4) 0
I901(4) 0
B902(2) 0
B903(2) 0
B904(2) 0
B905(2) 0
I906(4) 0
I907(4) 0
I908(4) 0
I909(4) 0
B910(2) 0
B911(2) 0
B912(2) 0
B913(2) 0
B914(2) 0
B915(2) 0
I916(4) 0
I917(4) 0
I918(4) 0
I919(4) 0
B920(2) 1
B921(2) 0
B922(2) 0
B923(2) 1
B924(2) 0
B925(2) 0
I926(4) 0
I927(4) 0
I928(4) 0
I929(4) 0
B930(2) 0
B931(2) 0
B932(2) 0
B933(2) 1
B934(2) 0
B935(2) 0
B936(2) 0
B937(2) 0
B938(2) 1
B939(2) 0
B940(2) 0
B941(2) 1
B942(2) 0
B943(2) 1
B944(2) 0
I945(4) 0
I946(4) 0
I947(4) 1
I948(4) 0
I949(4) 0
I950(4) 1
B951(2) 1
B952(2) 0
B953(2) 0
B954(2) 0
B955(2) 0
B956(2) 1
B957(2) 0
B958(2) 1
B959(2) 1
B960(2) 0
B961(2) 1
B962(2) 0
B963(2) 0
B964(2) 0
B965(2) 0
I966(4) 0
I967(4) 0
I968(4) 1.0000000000000004e+00
I969(4) 0
I970(4) 9.9999999999999956e-01
I971(4) 0
B972(2) 0
B973(2) 0
B974(2) 1
B975(2) 1
B976(2) 0
B977(2) 1
B978(2) 1
B979(2) 0
B980(2) 0
B981(2) 0
B982(2) 1
B983(2) 0
B984(2) 1
B985(2) 0
B986(2) 0
I987(4) 2
I988(4) 1.9999999999999996e+00
I989(4) 0
I990(4) 2
I991(4) 0
I992(4) 0
B993(2) 0
B994(2) 0
B995(2) 0
B996(2) 1
B997(2) 0
B998(2) 1
B999(2) 0
B1000(2) 0
B1001(2) 0
B1002(2) 0
B1003(2) 1
B1004(2) 0
B1005(2) 0
B1006(2) 0
B1007(2) 0
I1008(4) 0
I1009(4) 9.9999999999999956e-01
I1010(4) 0
I1011(4) 0
I1012(4) 0
I1013(4) 0
B1014(2) 1
B1015(2) 0
B1016(2) 1
B1017(2) 1
B1018(2) 0
B1019(2) 0
B1020(2) 1
B1021(2) 0
B1022(2) 1
B1023(2) 0
B1024(2) 1
B1025(2) 0
B1026(2) 0
B1027(2) 0
B1028(2) 0
I1029(4) 0
I1030(4) 2.9999999999999996e+00
I1031(4) 0
I1032(4) 3
I1033(4) 0
I1034(4) 1
B1035(2) 0
B1036(2) 0
B1037(2) 0
B1038(2) 0
B1039(2) 0
B1040(2) 0
B1041(2) 0
B1042(2) 0
B1043(2) 0
B1044(2) 0
B1045(2) 0
B1046(2) 0
B1047(2) 0
B1048(2) 0
B1049(2) 0
B1050(2) 0
B1051(2) 0
B1052(2) 0
B1053(2) 0
B1054(2) 0
B1055(2) 1
I1056(4) 0
I1057(4) 0
I1058(4) 0
I1059(4) 0
I1060(4) 0
I1061(4) 0
I1062(4) 0
B1063(2) 0
B1064(2) 0
B1065(2) 0
B1066(2) 0
B1067(2) 0
B1068(2) 0
B1069(2) 0
B1070(2) 0
B1071(2) 0
B1072(2) 0
B1073(2) 1
B1074(2) 0
B1075(2) 0
B1076(2) 0
B1077(2) 1
B1078(2) 0
B1079(2) 0
B1080(2) 1
B1081(2) 0
B1082(2) 0
B1083(2) 1
I1084(4) 0
I1085(4) 0
I1086(4) 0
I1087(4) 1
I1088(4) 0
I1089(4) 0
I1090(4) 1.0000000000000002e+00
B1091(2) 0
B1092(2) 0
B1093(2) 0
B1094(2) 0
B1095(2) 0
B1096(2) 0
B1097(2) 0
B1098(2) 0
B1099(2) 0
B1100(2) 0
B1101(2) 0
B1102(2) 0
B1103(2) 0
B1104(2) 0
B1105(2) 0
B1106(2) 0
B1107(2) 0
B1108(2) 0
B1109(2) 0
B1110(2) 1
B1111(2) 0
I1112(4) 0
I1113(4) 0
I1114(4) 0
I1115(4) 0
I1116(4) 0
I1117(4) 0
I1118(4) 0
B1119(2) 0
B1120(2) 0
B1121(2) 0
B1122(2) 0
B1123(2) 0
B1124(2) 0
B1125(2) 0
B1126(2) 0
B1127(2) 0
B1128(2) 0
B1129(2) 0
B1130(2) 0
B1131(2) 0
B1132(2) 0
B1133(2) 0
B1134(2) 1
B1135(2) 0
B1136(2) 1
B1137(2) 0
B1138(2) 0
B1139(2) 0
I1140(4) 0
I1141(4) 0
I1142(4) 0
I1143(4) 0
I1144(4) 0
I1145(4) 0
I1146(4) 0
B1147(2) 1
B1148(2) 0
B1149(2) 0
B1150(2) 0
B1151(2) 0
B1152(2) 0
B1153(2) 0
B1154(2) 0
B1155(2) 0
B1156(2) 1
B1157(2) 0
B1158(2) 0
B1159(2) 0
B1160(2) 0
B1161(2) 0
B1162(2) 0
B1163(2) 1
B1164(2) 0
B1165(2) 0
B1166(2) 0
B1167(2) 1
I1168(4) 0
I1169(4) 2
I1170(4) 2
I1171(4) 0
I1172(4) 2
I1173(4) 2
I1174(4) 0
B1175(2) 0
B1176(2) 0
B1177(2) 0
B1178(2) 0
B1179(2) 0
B1180(2) 0
B1181(2) 0
B1182(2) 0
B1183(2) 0
B1184(2) 0
B1185(2) 0
B1186(2) 0
B1187(2) 0
B1188(2) 0
B1189(2) 0
B1190(2) 0
B1191(2) 0
B1192(2) 0
B1193(2) 0
B1194(2) 0
B1195(2) 0
I1196(4) 0
I1197(4) 3
I1198(4) 3
I1199(4) 0
I1200(4) 3
I1201(4) 3
I1202(4) 0
I1203(4) 0
I1204(4) 0
B1205(2) 0
B1206(2) 0
B1207(2) 0
B1208(2) 0
B1209(2) 0
B1210(2) 0
B1211(2) 0
B1212(2) 0
B1213(2) 0
B1214(2) 0
B1215(2) 0
B1216(2) 0
B1217(2) 1
B1218(2) 0
B1219(2) 0
B1220(2) 0
B1221(2) 0
B1222(2) 0
B1223(2) 0
B1224(2) 0
B1225(2) 0
B1226(2) 0
B1227(2) 0
B1228(2) 0
B1229(2) 0
B1230(2) 0
B1231(2) 0
B1232(2) 0
B1233(2) 0
B1234(2) 0
I1235(4) 0
I1236(4) 1
I1237(4) 0
I1238(4) 0
I1239(4) 1
I1240(4) 1
I1241(4) 0
I1242(4) 0
I1243(4) 0
I1244(4) 0
I1245(4) 0
B1246(2) 1
B1247(2) 0
B1248(2) 0
B1249(2) 0
B1250(2) 1
B1251(2) 0
B1252(2) 0
B1253(2) 1
B1254(2) 0
B1255(2) 0
B1256(2) 0
B1257(2) 0
B1258(2) 0
B1259(2) 0
B1260(2) 1
I1261(4) 0
I1262(4) 4
I1263(4) 5
I1264(4) 1.4000000000000007e+01
I1265(4) 6
I1266(4) 0
B1267(2) 0
B1268(2) 0
B1269(2) 0
B1270(2) 0
B1271(2) 0
B1272(2) 0
B1273(2) 0
B1274(2) 1
B1275(2) 0
B1276(2) 1
B1277(2) 1
B1278(2) 1
B1279(2) 0
B1280(2) 0
B1281(2) 1
I1282(4) 0
I1283(4) 1
I1284(4) 2
I1285(4) 1
I1286(4) 2
I1287(4) 0
B1288(2) 0
B1289(2) 0
B1290(2) 0
B1291(2) 0
B1292(2) 0
B1293(2) 0
B1294(2) 0
B1295(2) 0
B1296(2) 0
B1297(2) 0
B1298(2) 0
I1299(4) 0
I1300(4) 0
I1301(4) 0
I1302(4) 0
I1303(4) 0
I1304(4) 0
B1305(2) 0
B1306(2) 0
B1307(2) 0
B1308(2) 0
B1309(2) 0
B1310(2) 0
B1311(2) 1
B1312(2) 0
B1313(2) 0
B1314(2) 0
B1315(2) 0
B1316(2) 0
I1317(4) 0
I1318(4) 0
I1319(4) 0
I1320(4) 0
I1321(4) 0
I1322(4) 0
B1323(2) 0
B1324(2) 0
B1325(2) 0
B1326(2) 0
B1327(2) 0
B1328(2) 0
B1329(2) 0
B1330(2) 0
B1331(2) 0
B1332(2) 0
B1333(2) 0
B1334(2) 0
I1335(4) 0
I1336(4) 0
I1337(4) 0
I1338(4) 0
I1339(4) 0
I1340(4) 0
B1341(2) 1
B1342(2) 0
B1343(2) 0
B1344(2) 0
B1345(2) 0
B1346(2) 1
B1347(2) 0
B1348(2) 0
B1349(2) 0
B1350(2) 0
B1351(2) 0
B1352(2) 0
B1353(2) 0
B1354(2) 0
B1355(2) 0
I1356(4) 0
I1357(4) 1
I1358(4) 1
I1359(4) 0
I1360(4) 0
I1361(4) 0
B1362(2) 0
B1363(2) 0
B1364(2) 0
B1365(2) 0
B1366(2) 0
B1367(2) 1
B1368(2) 0
B1369(2) 0
B1370(2) 0
B1371(2) 0
B1372(2) 0
B1373(2) 0
I1374(4) 0
I1375(4) 0
I1376(4) 0
I1377(4) 0
I1378(4) 0
I1379(4) 0
B1380(2) 1
B1381(2) 0
B1382(2) 0
B1383(2) 0
B1384(2) 0
B1385(2) 0
B1386(2) 0
B1387(2) 0
B1388(2) 0
B1389(2) 0
B1390(2) 1
B1391(2) 1
I1392(4) 0
I1393(4) 0
I1394(4) 0
I1395(4) 0
I1396(4) 0
I1397(4) 0
B1398(2) 1
B1399(2) 0
B1400(2) 0
B1401(2) 1
B1402(2) 0
B1403(2) 1
B1404(2) 0
B1405(2) 0
B1406(2) 0
B1407(2) 0
B1408(2) 0
B1409(2) 0
B1410(2) 0
B1411(2) 1
B1412(2) 0
I1413(4) 0
I1414(4) 1
I1415(4) 1
I1416(4) 0
I1417(4) 0
I1418(4) 0
B1419(2) 0
B1420(2) 1
B1421(2) 0
B1422(2) 0
B1423(2) 0
B1424(2) 1
B1425(2) 0
B1426(2) 0
B1427(2) 0
B1428(2) 0
B1429(2) 1
B1430(2) 0
B1431(2) 0
B1432(2) 0
B1433(2) 0
I1434(4) 0
I1435(4) 1
I1436(4) 9.9999999999999278e-01
I1437(4) 0
I1438(4) 0
I1439(4) 0
B1440(2) 1
B1441(2) 0
B1442(2) 0
B1443(2) 0
B1444(2) 0
B1445(2) 0
I1446(4) 0
I1447(4) 2
I1448(4) 2
I1449(4) 1
B1450(2) 0
B1451(2) 0
B1452(2) 0
I1453(4) 0
I1454(4) 1
I1455(4) 0
B1456(2) 0
I1457(4) 0
I1458(4) 0
I1459(2) 0
B1460(8) 0
B1461(16) 0
B1462(20) 0
B1463(8) 0
B1464(12) 1
B1465(14) 0
B1466(14) 0
B1467(14) 0
B1468(20) 0
B1469(12) 0
B1470(14) 0
B1471(14) 0
B1472(14) 1
B1473(8) 0
B1474(8) 0
B1475(8) 1
B1476(14) 0
B1477(14) 0
B1478(14) 0
B1479(12) 0
B1480(20) 1
B1481(14) 0
B1482(14) 0
B1483(14) 0
B1484(20) 0
B1485(12) 1
B1486(14) 0
B1487(14) 1
B1488(14) 1
B1489(14) 0
B1490(14) 1
B1491(8) 1
B1492(18) 0
B1493(18) 1
B1494(8) 1
B1495(16) 0
B1496(16) 1
B1497(8) 0
B1498(16) 0
B1499(9) 1
B1500(16) 1
B1501(16) 0
B1502(16) 0
B1503(16) 1
B1504(16) 0
B1505(9) 1
B1506(9) 1
B1507(9) 0
B1508(16) 0
B1509(16) 1
B1510(16) 0
B1511(9) 1
B1512(9) 1
B1513(9) 0
B1514(9) 0
B1515(9) 1
B1516(9) 0
B1517(9) 1
B1518(9) 1
B1519(9) 0
B1520(16) 0
B1521(16) 1
B1522(16) 0
B1523(9) 1
B1524(16) 1
B1525(16) 0
B1526(18) 0
B1527(18) 1
B1528(8) 0
B1529(8) 1
B1530(16) 0
B1531(16) 1
B1532(9) 1
B1533(9) 0
B1534(9) 1
B1535(12) 0
B1536(20) 0
B1537(9) 1
B1538(12) 0
B1539(20) 0
B1540(12) 0
B1541(20) 0
B1542(10) 0
B1543(10) 1
B1544(18) 0
B1545(18) 0
B1546(10) 1
B1547(18) 0
B1548(18) 0
B1549(18) 0
B1550(18) 0
B1551(8) 0
B1552(18) 0
B1553(8) 0
B1554(8) 1
B1555(30) 0
B1556(26) 0
B1557(8) 1
B1558(14) 0
B1559(9) 0
B1560(16) 1
B1561(16) 0
B1562(16) 1
B1563(16) 0
B1564(16) 0
B1565(28) 0
B1566(14) 0
B1567(14) 0
B1568(30) 1
B1569(14) 0
B1570(22) 0
B1571(14) 0
B1572(12) 0
B1573(16) 1
B1574(16) 0
B1575(12) 1
B1576(12) 0
B1577(16) 0
B1578(24) 0
B1579(14) 1
B1580(14) 0
B1581(14) 0
B1582(24) 0
B1583(9) 1
B1584(16) 0
B1585(16) 0
B1586(16) 0
B1587(16) 0
B1588(16) 0
B1589(9) 1
B1590(16) 1
B1591(9) 0
B1592(16) 1
B1593(9) 0
B1594(16) 0
B1595(9) 1
B1596(9) 0
B1597(9) 0
B1598(9) 0
B1599(9) 0
B1600(9) 0
B1601(9) 1
B1602(9) 0
B1603(9) 0
B1604(9) 0
B1605(9) 0
B1606(9) 0
B1607(16) 1
B1608(16) 0
B1609(16) 0
B1610(16) 1
B1611(16) 1
B1612(9) 0
B1613(8) 1
B1614(18) 0
B1615(18) 0
B1616(14) 0
B1617(12) 0
B1618(20) 0
B1619(14) 0
B1620(14) 0
B1621(14) 0
B1622(16) 0
B1623(9) 0
B1624(16) 1
B1625(9) 0
B1626(9) 0
B1627(18) 0
B1628(36) 0
B1629(9) 0
B1630(18) 0
B1631(36) 0
B1632(18) 0
B1633(36) 0
B1634(6) 1
B1635(13) 1
B1636(6) 0
B1637(13) 0
B1638(6) 0
B1639(13) 0
B1640(6) 0
B1641(13) 0
B1642(6) 0
B1643(13) 0
B1644(6) 0
B1645(13) 0
B1646(16) 0
B1647(16) 0
B1648(56) 0
B1649(16) 0
B1650(56) 0
B1651(56) 0
B1652(13) 1
B1653(13) 0
B1654(24) 0
B1655(20) 0
B1656(24) 0
B1657(20) 0
B1658(24) 0
B1659(20) 0
B1660(24) 0
B1661(20) 0
B1662(24) 0
B1663(13) 0
B1664(24) 0
B1665(20) 0
B1666(24) 0
B1667(20) 0
B1668(24) 0
B1669(20) 0
B1670(24) 0
B1671(20) 0
B1672(24) 0
B1673(24) 0
B1674(20) 0
B1675(24) 0
B1676(20) 0
B1677(24) 0
B1678(20) 0
B1679(24) 0
B1680(20) 0
B1681(24) 0
B1682(20) 0
B1683(24) 0
B1684(20) 0
B1685(24) 0
B1686(20) 0
B1687(24) 0
B1688(20) 0
B1689(24) 0
B1690(10) 0
B1691(24) 0
B1692(10) 0
B1693(24) 0
B1694(10) 0
B1695(24) 0
B1696(10) 0
B1697(13) 0
B1698(10) 0
B1699(13) 0
B1700(10) 0
B1701(13) 0
B1702(28) 0
B1703(28) 0
B1704(28) 0
B1705(28) 0
B1706(28) 0
B1707(34) 0
B1708(28) 0
B1709(28) 0
B1710(28) 0
B1711(28) 0
B1712(28) 0
B1713(28) 0
B1714(28) 0
B1715(34) 0
B1716(28) 0
B1717(28) 0
B1718(28) 0
B1719(28) 0
B1720(28) 0
B1721(28) 0
B1722(34) 0
B1723(28) 0
B1724(28) 0
B1725(28) 0
B1726(15) 1
B1727(15) 0
B1728(36) 0
B1729(28) 0
B1730(15) 0
B1731(15) 0
B1732(15) 0
B1733(36) 0
B1734(28) 0
B1735(15) 0
B1736(15) 0
B1737(36) 0
B1738(28) 0
B1739(15) 0
B1740(15) 0
B1741(12) 0
B1742(36) 0
B1743(36) 1
B1744(36) 1
B1745(28) 1
B1746(28) 1
B1747(15) 0
B1748(28) 0
B1749(28) 0
B1750(28) 0
B1751(28) 0
B1752(28) 0
B1753(28) 0
B1754(36) 0
B1755(28) 0
B1756(28) 0
B1757(28) 0
B1758(28) 0
B1759(28) 0
B1760(28) 0
B1761(28) 0
B1762(36) 0
B1763(28) 0
B1764(28) 0
B1765(28) 0
B1766(28) 0
B1767(28) 0
B1768(28) 0
B1769(36) 0
B1770(28) 0
B1771(28) 0
B1772(15) 1
B1773(15) 0
B1774(28) 0
B1775(36) 0
B1776(15) 0
B1777(15) 0
B1778(15) 0
B1779(28) 0
B1780(36) 0
B1781(15) 0
B1782(15) 0
B1783(28) 0
B1784(36) 0
B1785(15) 0
B1786(15) 0
B1787(36) 0
B1788(28) 1
B1789(28) 1
B1790(12) 0
B1791(36) 1
B1792(36) 1
B1793(15) 0
B1794(30) 0
B1795(30) 0
B1796(30) 0
B1797(30) 0
B1798(30) 0
B1799(30) 0
B1800(30) 0
B1801(30) 0
B1802(30) 0
B1803(30) 0
B1804(30) 0
B1805(30) 0
B1806(30) 0
B1807(30) 0
B1808(30) 0
B1809(30) 0
B1810(30) 0
B1811(30) 0
B1812(30) 0
B1813(30) 0
B1814(30) 0
B1815(30) 0
B1816(30) 0
B1817(30) 0
B1818(30) 0
B1819(30) 0
B1820(30) 0
B1821(16) 1
B1822(16) 0
B1823(16) 0
B1824(30) 0
B1825(30) 0
B1826(30) 0
B1827(30) 0
B1828(16) 0
B1829(16) 0
B1830(30) 0
B1831(30) 0
B1832(30) 0
B1833(30) 0
B1834(16) 0
B1835(30) 0
B1836(30) 0
B1837(30) 0
B1838(30) 0
B1839(30) 0
B1840(30) 0
B1841(30) 0
B1842(30) 0
B1843(16) 0
B1844(30) 0
B1845(30) 0
B1846(30) 0
B1847(30) 0
B1848(16) 0
B1849(16) 0
B1850(16) 0
B1851(50) 0
B1852(16) 0
B1853(50) 0
B1854(50) 0
B1855(10) 1
B1856(10) 0
B1857(10) 0
B1858(20) 0
B1859(20) 0
B1860(20) 0
B1861(20) 0
B1862(10) 0
B1863(10) 0
B1864(20) 0
B1865(20) 0
B1866(20) 0
B1867(20) 0
B1868(10) 0
B1869(20) 0
B1870(20) 0
B1871(20) 0
B1872(20) 0
B1873(20) 0
B1874(20) 0
B1875(20) 0
B1876(20) 0
B1877(13) 0
B1878(13) 0
B1879(24) 0
B1880(13) 0
B1881(24) 0
B1882(24) 0
B1883(9) 0
B1884(9) 0
B1885(22) 0
B1886(9) 0
B1887(22) 0
B1888(22) 0
B1889(6) 0
B1890(6) 0
B1891(12) 0
B1892(6) 0
B1893(12) 0
B1894(12) 0
B1895(9) 0
B1896(9) 0
B1897(18) 0
B1898(9) 0
B1899(18) 0
B1900(18) 0
B1901(9) 0
B1902(9) 0
B1903(26) 0
B1904(9) 0
B1905(26) 0
B1906(26) 0
B1907(8) 0
B1908(14) 0
B1909(12) 0
B1910(12) 0
B1911(22) 0
B1912(22) 0
B1913(22) 0
B1914(12) 0
B1915(22) 0
B1916(22) 0
B1917(22) 0
B1918(22) 0
B1919(22) 0
B1920(22) 0
B1921(12) 0
B1922(10) 0
B1923(22) 0
B1924(10) 0
B1925(22) 0
B1926(11) 0
B1927(11) 0
B1928(11) 0
B1929(20) 0
B1930(16) 0
B1931(11) 0
B1932(11) 0
B1933(20) 0
B1934(16) 0
B1935(11) 0
B1936(20) 0
B1937(16) 0
B1938(20) 0
B1939(16) 0
B1940(16) 0
B1941(10) 0
B1942(10) 0
B1943(10) 0
B1944(14) 0
B1945(10) 0
B1946(10) 0
B1947(14) 0
B1948(10) 0
B1949(14) 0
B1950(14) 0
B1951(9) 0
B1952(9) 0
B1953(9) 0
B1954(9) 0
B1955(9) 0
B1956(9) 0
B1957(9) 0
B1958(9) 0
B1959(9) 0
B1960(9) 0
B1961(9) 0
B1962(9) 0
B1963(16) 0
B1964(16) 0
B1965(16) 0
B1966(9) 0
B1967(9) 0
B1968(9) 0
B1969(12) 0
B1970(12) 0
B1971(12) 0
B1972(9) 0
B1973(9) 0
B1974(9) 0
B1975(16) 0
B1976(16) 0
B1977(9) 0
B1978(26) 0
B1979(26) 0
B1980(12) 1
B1981(14) 1
B1982(8) 0
B1983(12) 1
B1984(12) 1
B1985(18) 0
B1986(18) 0
B1987(10) 1
B1988(10) 0
B1989(14) 0
B1990(10) 0
B1991(18) 0
B1992(14) 1
B1993(18) 0
B1994(14) 1
B1995(10) 0
B1996(14) 0
B1997(10) 0
B1998(10) 0
B1999(10) 1
B2000(10) 0
B2001(10) 1
B2002(10) 1
B2003(10) 0
B2004(10) 0
B2005(10) 1
B2006(14) 0
B2007(18) 0
B2008(10) 0
B2009(10) 1
B2010(14) 0
B2011(18) 0
B2012(10) 1
B2013(14) 0
B2014(18) 0
B2015(14) 0
B2016(18) 0
B2017(18) 0
B2018(18) 0
B2019(10) 1
B2020(14) 0
B2021(10) 0
B2022(18) 0
B2023(14) 0
B2024(18) 0
B2025(14) 0
B2026(14) 0
B2027(20) 0
B2028(14) 1
B2029(12) 0
B2030(20) 1
B2031(16) 0
B2032(14) 1
B2033(8) 0
B2034(16) 1
B2035(22) 1
B2036(14) 0
B2037(20) 1
B2038(14) 1
B2039(7) 1
B2040(10) 1
B2041(20) 1
B2042(10) 1
B2043(14) 1
B2044(14) 0
B2045(24) 1
B2046(14) 0
B2047(22) 1
B2048(12) 0
B2049(20) 1
B2050(14) 1
B2051(12) 1
B2052(20) 0
B2053(20) 1
B2054(14) 1
B2055(12) 1
B2056(20) 0
B2057(20) 1
B2058(14) 1
B2059(22) 1
B2060(12) 0
B2061(22) 1
B2062(14) 1
B2063(18) 1
B2064(18) 0
B2065(18) 1
B2066(18) 0
B2067(10) 1
B2068(18) 0
B2069(26) 1
B2070(26) 0
B2071(26) 1
B2072(18) 0
B2073(26) 0
B2074(12) 0
B2075(18) 0
B2076(18) 1
B2077(18) 0
B2078(18) 0
B2079(10) 1
B2080(18) 0
B2081(18) 0
B2082(18) 0
B2083(18) 0
B2084(6) 1
B2085(12) 9.9999999999999956e-01
B2086(26) 0
B2087(26) 1
B2088(26) 0
B2089(26) 0
B2090(10) 1
B2091(10) 1
B2092(18) 1
B2093(10) 0
B2094(18) 0
B2095(18) 1
B2096(20) 9.9999999999999956e-01
B2097(20) 0
B2098(20) 0
B2099(20) 0
B2100(20) 0
B2101(20) 0
B2102(20) 0
B2103(20) 0
B2104(20) 0
B2105(11) 1
B2106(11) 1
B2107(11) 1
B2108(11) 0
B2109(11) 0
B2110(11) 1
B2111(20) 9.9999999999999956e-01
B2112(20) 0
B2113(20) 0
B2114(20) 0
B2115(20) 0
B2116(11) 0
B2117(11) 0
B2118(11) 0
B2119(11) 0
B2120(11) 1
B2121(11) 1
B2122(11) 1
B2123(11) 0
B2124(11) 0
B2125(11) 1
B2126(24) 0
B2127(24) 0
B2128(24) 1
B2129(24) 0
B2130(24) 0
B2131(11) 0
B2132(11) 1
B2133(11) 0
B2134(11) 1
B2135(11) 1
B2136(11) 1
B2137(11) 1
B2138(11) 0
B2139(11) 0
B2140(11) 1
B2141(22) 0
B2142(22) 0
B2143(22) 1
B2144(22) 0
B2145(22) 0
B2146(8) 9.9999999999999978e-01
B2147(22) 9.9999999999999978e-01
B2148(22) 0
B2149(22) 1
B2150(22) 0
B2151(12) 1
B2152(22) 1
B2153(12) 1
B2154(12) 1
B2155(22) 0
B2156(22) 1
B2157(12) 0
B2158(22) 1
B2159(22) 0
B2160(22) 0
B2161(22) 1
B2162(22) 9.9999999999999978e-01
B2163(15) 0
B2164(11) 0
B2165(11) 1
B2166(11) 0
B2167(11) 9.9999999999999978e-01
B2168(15) 0
B2169(15) 1
B2170(15) 0
B2171(7) 1
B2172(15) 1
B2173(11) 1
B2174(11) 1
B2175(11) 1
B2176(11) 0
B2177(11) 1
B2178(11) 1
B2179(22) 0
B2180(12) 0
B2181(12) 1
B2182(12) 0
B2183(22) 0
B2184(12) 1
B2185(22) 1
B2186(22) 0
B2187(22) 1
B2188(12) 1
B2189(22) 0
B2190(12) 1
B2191(12) 1
B2192(22) 1
B2193(12) 1
B2194(12) 0
B2195(22) 0
B2196(12) 1
B2197(22) 1
B2198(12) 1
B2199(22) 0
B2200(22) 0
B2201(22) 0
B2202(12) 1
B2203(22) 0
B2204(22) 0
B2205(22) 1
B2206(12) 0
B2207(22) 0
B2208(12) 0
B2209(12) 1
B2210(12) 1
B2211(22) 0
B2212(12) 1
B2213(12) 1
B2214(12) 1
B2215(22) 0
B2216(22) 0
B2217(22) 1
B2218(12) 1
B2219(12) 1
B2220(12) 1
B2221(30) 0
B2222(30) 0
B2223(16) 1
B2224(11) 0
B2225(11) 0
B2226(11) 1
B2227(11) 1
B2228(11) 1
B2229(11) 1
B2230(11) 1
B2231(30) 0
B2232(30) 0
B2233(30) 1
B2234(11) 1
B2235(11) 1
B2236(11) 1
B2237(36) 0
B2238(36) 0
B2239(18) 1
B2240(36) 0
B2241(36) 0
B2242(36) 1
B2243(12) 0
B2244(22) 0
B2245(12) 0
B2246(22) 0
B2247(11) 0
B2248(11) 0
B2249(11) 1
B2250(11) 1
B2251(11) 1
B2252(11) 1
B2253(11) 1
B2254(12) 0
B2255(18) 0
B2256(12) 0
B2257(18) 0
B2258(11) 1
B2259(11) 1
B2260(11) 1
B2261(6) 1
B2262(12) 1
B2263(30) 0
B2264(30) 0
B2265(30) 0
B2266(30) 0
B2267(30) 1
B2268(16) 0
B2269(16) 0
B2270(18) 0
B2271(16) 0
B2272(18) 0
B2273(16) 0
B2274(18) 0
B2275(16) 0
B2276(11) 0
B2277(11) 0
B2278(20) 0
B2279(11) 1
B2280(11) 1
B2281(20) 1
B2282(11) 1
B2283(20) 1
B2284(11) 1
B2285(20) 0
B2286(8) 1
B2287(18) 0
B2288(14) 0
B2289(18) 0
B2290(14) 0
B2291(18) 0
B2292(14) 0
B2293(18) 0
B2294(14) 0
B2295(18) 0
B2296(14) 0
B2297(18) 0
B2298(14) 0
B2299(9) 1
B2300(8) 1
B2301(9) 1
B2302(8) 1
B2303(9) 1
B2304(8) 1
B2305(26) 0
B2306(26) 0
B2307(26) 0
B2308(12) 0
B2309(26) 1
B2310(18) 0
B2311(18) 0
B2312(18) 1
B2313(10) 1
B2314(10) 1
B2315(10) 1
B2316(12) 0
B2317(24) 0
B2318(24) 0
B2319(24) 0
B2320(24) 1
B2321(18) 0
B2322(18) 0
B2323(18) 1
B2324(18) 1
B2325(10) 1
B2326(18) 0
B2327(7) 0
B2328(24) 0
B2329(22) 0
B2330(22) 0
B2331(22) 1
B2332(18) 0
B2333(18) 0
B2334(18) 1
B2335(10) 1
B2336(10) 1
B2337(10) 1
B2338(8) 0
B2339(14) 0
B2340(14) 0
B2341(28) 0
B2342(28) 0
B2343(28) 1
B2344(9) 1
B2345(9) 1
B2346(9) 1
B2347(12) 0
B2348(26) 0
B2349(24) 0
B2350(24) 0
B2351(24) 1
B2352(18) 0
B2353(18) 0
B2354(18) 1
B2355(10) 1
B2356(10) 1
B2357(10) 1
B2358(26) 1
B2359(12) 1
B2360(24) 1
B2361(24) 1
B2362(24) 0
B2363(18) 1
B2364(18) 1
B2365(18) 0
B2366(10) 1
B2367(10) 1
B2368(10) 1
B2369(8) 0
B2370(8) 0
B2371(15) 0
B2372(15) 0
B2373(15) 1
B2374(8) 1
B2375(9) 1
B2376(9) 1
B2377(9) 1
B2378(26) 0
B2379(12) 0
B2380(24) 0
B2381(24) 0
B2382(24) 1
B2383(18) 0
B2384(18) 0
B2385(18) 1
B2386(10) 1
B2387(18) 1
B2388(18) 1
B2389(26) 0
B2390(26) 0
B2391(26) 0
B2392(26) 0
B2393(12) 1
B2394(18) 0
B2395(18) 0
B2396(18) 0
B2397(18) 0
B2398(18) 0
B2399(18) 1
B2400(16) 0
B2401(24) 0
B2402(16) 1
B2403(5) 0
B2404(10) 0
B2405(24) 0
B2406(16) 1
B2407(10) 1
B2408(24) 1
B2409(8) 0
B2410(18) 0
B2411(14) 1
B2412(18) 1
B2413(16) 0
B2414(8) 1
B2415(6) 0
I2416(2) 0
I2417(6) 0
I2418(1) 80
I2419(10) 0
I2420(1) 80
I2421(1) 80
I2422(12) 0
I2423(1) 80
I2424(1) 80
I2425(1) 80
I2426(12) 0
I2427(1) 80
I2428(1) 80
I2429(1) 80
I2430(12) 0
I2431(1) 80
I2432(1) 80
I2433(1) 80
B2434(4) 0
I2435(12) 0
I2436(1) 80
I2437(1) 80
I2438(1) 41
B2439(3) 1
I2440(12) 0
I2441(1) 80
I2442(1) 80
I2443(1) 80
B2444(4) 1
I2445(12) 0
I2446(1) 80
I2447(1) 78
I2448(1) 80
I2449(12) 0
I2450(1) 80
I2451(1) 80
I2452(1) 74
I2453(12) 0
I2454(1) 80
I2455(1) 80
I2456(1) 80
I2457(12) 0
I2458(1) 80
I2459(1) 80
I2460(1) 80
B2461(4) 0
I2462(12) 0
I2463(1) 80
I2464(1) 80
I2465(1) 80
I2466(12) 0
I2467(1) 80
I2468(1) 78
I2469(1) 80
I2470(14) 0
I2471(1) 80
I2472(1) 80
I2473(1) 80
I2474(16) 0
I2475(1) 80
I2476(1) 80
I2477(1) 80
I2478(1) 80
B2479(4) 0
I2480(16) 0
I2481(1) 80
I2482(1) 80
I2483(1) 80
I2484(1) 80
I2485(16) 0
I2486(1) 80
I2487(1) 78
I2488(1) 80
I2489(1) 78
I2490(16) 0
I2491(1) 80
I2492(1) 80
I2493(1) 80
I2494(1) 80
I2495(16) 0
I2496(1) 80
I2497(1) 80
I2498(1) 80
I2499(1) 80
I2500(14) 0
I2501(1) 80
I2502(1) 80
I2503(1) 80
I2504(1) 80
I2505(14) 0
I2506(1) 80
I2507(1) 78
I2508(1) 80
I2509(18) 0
I2510(1) 80
I2511(1) 80
I2512(1) 80
I2513(1) 80
I2514(20) 0
I2515(1) 80
I2516(1) 80
I2517(1) 80
B2518(4) 0
I2519(1) 80
I2520(1) 80
I2521(20) 0
I2522(1) 80
I2523(1) 80
I2524(1) 80
I2525(1) 80
I2526(1) 78
I2527(20) 0
I2528(1) 80
I2529(1) 80
I2530(1) 80
I2531(1) 80
I2532(1) 80
I2533(20) 0
I2534(1) 80
I2535(1) 80
I2536(1) 80
I2537(1) 80
I2538(1) 80
I2539(18) 0
I2540(1) 80
I2541(1) 80
I2542(1) 80
I2543(1) 80
I2544(1) 80
I2545(16) 1
I2546(1) 80
I2547(1) 80
I2548(1) 80
I2549(1) 80
I2550(16) 0
I2551(1) 78
I2552(1) 78
B2553(4) 1
I2554(1) 80
I2555(1) 80
I2556(16) 0
I2557(1) 80
I2558(1) 80
I2559(1) 78
I2560(1) 78
I2561(16) 0
I2562(1) 80
I2563(1) 80
I2564(1) 80
I2565(1) 80
I2566(16) 0
I2567(1) 80
I2568(1) 80
I2569(1) 80
I2570(1) 80
I2571(16) 0
I2572(1) 80
I2573(1) 80
I2574(1) 80
I2575(1) 80
I2576(14) 0
I2577(1) 80
I2578(1) 80
I2579(1) 80
I2580(1) 80
I2581(12) 0
I2582(1) 78
I2583(1) 78
I2584(1) 78
I2585(12) 0
I2586(1) 80
B2587(4) 0
I2588(1) 80
I2589(1) 80
I2590(20) 0
I2591(1) 80
I2592(1) 80
I2593(1) 78
I2594(36) 0
I2595(1) 80
I2596(1) 80
I2597(1) 80
I2598(1) 80
I2599(1) 80
I2600(1) 80
I2601(1) 80
I2602(44) 0
I2603(1) 80
I2604(1) 80
I2605(1) 80
I2606(1) 80
I2607(1) 80
I2608(1) 80
I2609(1) 80
I2610(1) 80
I2611(1) 80
I2612(1) 80
I2613(1) 80
I2614(44) 0
I2615(1) 80
I2616(1) 80
I2617(1) 80
I2618(1) 80
I2619(1) 80
I2620(1) 80
I2621(1) 80
I2622(1) 80
I2623(1) 80
I2624(1) 80
I2625(1) 80
I2626(44) 0
I2627(1) 80
I2628(1) 80
I2629(1) 80
I2630(1) 80
I2631(1) 80
I2632(1) 80
I2633(1) 80
I2634(1) 80
I2635(1) 80
I2636(1) 80
I2637(44) 0
I2638(1) 80
I2639(1) 80
I2640(1) 80
I2641(1) 80
I2642(1) 80
I2643(1) 80
I2644(1) 80
I2645(1) 80
I2646(1) 80
I2647(1) 80
I2648(36) 0
I2649(1) 80
I2650(1) 80
I2651(1) 80
I2652(1) 80
I2653(1) 80
I2654(1) 80
I2655(1) 80
I2656(1) 80
I2657(1) 80
I2658(1) 80
I2659(1) 80
I2660(22) 0
I2661(1) 80
I2662(1) 80
I2663(1) 80
I2664(1) 72
I2665(1) 72
I2666(1) 72
I2667(1) 72
I2668(18) 0
I2669(1) 80
I2670(1) 80
I2671(1) 80
I2672(1) 74
I2673(22) 0
I2674(1) 80
I2675(1) 80
I2676(1) 80
I2677(1) 80
I2678(1) 80
B2679(14) 0
I2680(24) 0
I2681(1) 80
B2682(14) 0
I2683(1) 80
B2684(14) 0
I2685(1) 80
B2686(14) 0
I2687(1) 80
B2688(14) 0
I2689(1) 80
B2690(14) 0
I2691(1) 80
I2692(22) 0
I2693(1) 80
I2694(1) 80
I2695(1) 80
I2696(1) 80
I2697(1) 80
I2698(1) 80
I2699(18) 0
I2700(1) 80
I2701(1) 80
I2702(1) 80
I2703(1) 80
I2704(1) 80
I2705(16) 0
I2706(1) 80
I2707(1) 80
I2708(1) 80
I2709(1) 80
I2710(16) 0
I2711(1) 80
I2712(1) 80
I2713(1) 80
I2714(1) 80
I2715(16) 0
I2716(1) 80
I2717(1) 80
I2718(1) 80
I2719(1) 80
I2720(14) 0
I2721(1) 40
I2722(1) 80
I2723(1) 80
I2724(1) 80
I2725(14) 0
I2726(1) 80
I2727(1) 80
I2728(1) 80
I2729(18) 0
I2730(1) 80
I2731(1) 80
I2732(1) 80
I2733(1) 80
I2734(18) 0
I2735(1) 80
I2736(1) 80
I2737(1) 80
I2738(1) 80
I2739(1) 80
I2740(18) 0
I2741(1) 80
I2742(1) 78
I2743(1) 78
I2744(1) 80
I2745(20) 0
I2746(1) 80
I2747(1) 80
I2748(1) 80
I2749(1) 80
I2750(1) 80
I2751(18) 0
I2752(1) 80
I2753(1) 80
I2754(1) 80
I2755(1) 80
I2756(1) 80
I2757(16) 0
I2758(1) 80
I2759(1) 80
I2760(1) 80
I2761(1) 80
I2762(14) 2
I2763(1) 80
I2764(1) 80
I2765(1) 80
I2766(1) 80
I2767(14) 0
I2768(1) 80
I2769(1) 72
I2770(1) 80
I2771(16) 0
I2772(1) 80
I2773(1) 80
I2774(1) 78
I2775(1) 80
I2776(16) 1
I2777(1) 80
I2778(1) 80
I2779(1) 80
I2780(1) 80
I2781(16) 1
I2782(1) 80
I2783(1) 80
I2784(1) 80
I2785(1) 80
I2786(16) 1
I2787(1) 80
I2788(1) 80
I2789(1) 80
I2790(1) 80
I2791(16) 9.9999999999999956e-01
I2792(1) 80
I2793(1) 80
I2794(1) 80
I2795(1) 80
I2796(16) 9.9999999999999956e-01
I2797(1) 80
I2798(1) 80
I2799(1) 80
I2800(1) 80
I2801(20) 9.9999999999999956e-01
I2802(1) 80
I2803(1) 80
I2804(1) 80
I2805(1) 80
I2806(24) 9.9999999999999956e-01
I2807(1) 80
I2808(1) 80
I2809(1) 80
I2810(1) 80
I2811(1) 80
I2812(1) 78
I2813(24) 1
I2814(1) 80
I2815(1) 80
I2816(1) 80
I2817(1) 80
I2818(1) 78
I2819(1) 80
B2820(4) 1
I2821(24) 0
I2822(1) 77
I2823(1) 76
I2824(1) 80
I2825(1) 80
I2826(1) 80
I2827(1) 80
I2828(24) 1
I2829(1) 80
I2830(1) 80
I2831(1) 80
I2832(1) 80
I2833(1) 80
I2834(1) 80
I2835(26) 0
I2836(1) 80
I2837(1) 80
I2838(1) 80
I2839(1) 74
I2840(1) 80
I2841(1) 78
I2842(28) 0
I2843(1) 80
I2844(1) 80
I2845(1) 80
I2846(1) 80
I2847(1) 80
I2848(1) 80
I2849(1) 80
I2850(28) 0
I2851(1) 80
I2852(1) 80
I2853(1) 80
I2854(1) 80
I2855(1) 80
I2856(1) 80
I2857(1) 78
I2858(28) 0
I2859(1) 80
I2860(1) 80
I2861(1) 80
I2862(1) 80
I2863(1) 80
I2864(1) 80
I2865(1) 80
I2866(28) 0
I2867(1) 80
I2868(1) 80
I2869(1) 80
I2870(1) 80
I2871(1) 80
I2872(1) 80
I2873(1) 80
I2874(32) 0
I2875(1) 80
I2876(1) 80
I2877(1) 80
I2878(1) 80
I2879(1) 80
I2880(1) 80
I2881(1) 80
I2882(40) 0
I2883(1) 80
I2884(1) 80
I2885(1) 80
B2886(14) 0
B2887(14) 0
B2888(14) 0
I2889(1) 80
I2890(1) 80
I2891(1) 80
I2892(1) 80
I2893(1) 80
I2894(1) 80
I2895(34) 1
I2896(1) 80
I2897(1) 78
I2898(1) 80
I2899(1) 80
I2900(1) 80
I2901(1) 80
I2902(1) 80
I2903(1) 80
I2904(1) 80
I2905(1) 80
I2906(1) 80
I2907(24) 1
I2908(1) 80
I2909(1) 72
I2910(1) 70
I2911(1) 6.0999999999999993e+01
I2912(1) 68
I2913(1) 80
I2914(24) 1
I2915(1) 80
I2916(1) 78
I2917(1) 76
I2918(1) 80
I2919(1) 80
I2920(1) 80
I2921(24) 1
I2922(1) 80
I2923(1) 80
I2924(1) 80
I2925(1) 80
I2926(1) 80
I2927(1) 80
I2928(24) 1
I2929(1) 80
I2930(1) 80
I2931(1) 80
I2932(1) 80
I2933(1) 80
I2934(1) 80
I2935(24) 1
I2936(1) 80
I2937(1) 80
I2938(1) 80
I2939(1) 80
I2940(1) 80
I2941(1) 80
I2942(24) 1
I2943(1) 80
I2944(1) 80
I2945(1) 78
I2946(1) 80
I2947(1) 80
I2948(1) 80
I2949(24) 1
I2950(1) 80
I2951(1) 80
I2952(1) 80
I2953(1) 80
I2954(1) 80
I2955(1) 80
I2956(24) 1
I2957(1) 80
I2958(1) 80
I2959(1) 80
I2960(1) 80
I2961(1) 80
I2962(1) 80
I2963(24) 1
I2964(1) 80
I2965(1) 78
I2966(1) 80
I2967(1) 80
I2968(1) 80
I2969(1) 80
I2970(20) 1
I2971(1) 80
I2972(1) 80
I2973(1) 7.8000000000000014e+01
I2974(1) 80
I2975(1) 80
I2976(1) 80
I2977(14) 0
I2978(1) 80
I2979(1) 76
I2980(1) 76
I2981(1) 78
I2982(10) 0
I2983(1) 80
I2984(1) 78
I2985(1) 80
I2986(4) 1
I2987(1) 80
I2988(1) 80
B2989(2) 1
B2990(8) 1
B2991(8) 1
B2992(8) 0
B2993(8) 0
B2994(8) 0
B2995(9) 0
B2996(9) 0
B2997(9) 0
B2998(9) 1
B2999(9) 0
B3000(9) 0
B3001(9) 1
B3002(9) 1
B3003(9) 0
B3004(9) 1
B3005(9) 0
B3006(9) 0
B3007(9) 1
B3008(9) 0
B3009(8) 0
B3010(9) 0
B3011(9) 1
B3012(9) 0
B3013(9) 0
B3014(10) 1
B3015(10) 0
B3016(10) 0
B3017(8) 1
B3018(8) 0
B3019(8) 0
B3020(9) 1
B3021(9) 0
B3022(9) 0
B3023(9) 1
B3024(9) 1
B3025(9) 0
B3026(9) 1
B3027(9) 1
B3028(9) 1
B3029(9) 1
B3030(9) 1
B3031(9) 0
B3032(9) 1
B3033(9) 1
B3034(9) 1
B3035(9) 1
B3036(9) 1
B3037(9) 1
B3038(9) 1
B3039(9) 1
B3040(9) 1
B3041(9) 1
B3042(6) 0
B3043(13) 0
B3044(6) 1
B3045(13) 1
B3046(6) 1
B3047(13) 1
B3048(6) 1
B3049(13) 1
B3050(6) 1
B3051(13) 1
B3052(6) 1
B3053(13) 1
B3054(13) 0
B3055(13) 1
B3056(13) 1
B3057(10) 1
B3058(10) 1
B3059(10) 1
B3060(10) 1
B3061(13) 1
B3062(10) 1
B3063(13) 1
B3064(10) 1
B3065(13) 1
B3066(15) 0
B3067(15) 1
B3068(15) 1
B3069(15) 1
B3070(15) 1
B3071(15) 1
B3072(15) 1
B3073(15) 1
B3074(15) 1
B3075(15) 1
B3076(15) 0
B3077(15) 1
B3078(15) 1
B3079(15) 1
B3080(15) 1
B3081(15) 1
B3082(15) 1
B3083(15) 1
B3084(15) 1
B3085(15) 1
B3086(16) 0
B3087(16) 1
B3088(16) 1
B3089(16) 1
B3090(16) 1
B3091(16) 1
B3092(16) 1
B3093(16) 1
B3094(10) 0
B3095(10) 1
B3096(10) 1
B3097(10) 1
B3098(10) 1
B3099(10) 1
B3100(13) 1
B3101(13) 1
B3102(13) 1
B3103(9) 1
B3104(9) 1
B3105(9) 1
B3106(6) 1
B3107(6) 1
B3108(6) 1
B3109(9) 1
B3110(9) 1
B3111(9) 1
B3112(9) 1
B3113(9) 1
B3114(9) 1
B3115(12) 1
B3116(12) 1
B3117(12) 1
B3118(12) 1
B3119(11) 1
B3120(11) 1
B3121(11) 1
B3122(11) 1
B3123(11) 1
B3124(11) 1
B3125(10) 1
B3126(10) 1
B3127(10) 1
B3128(10) 1
B3129(10) 1
B3130(10) 1
B3131(9) 1
B3132(9) 1
B3133(9) 1
B3134(9) 1
B3135(9) 1
B3136(9) 1
B3137(9) 1
B3138(9) 1
B3139(9) 1
B3140(9) 1
B3141(9) 1
B3142(9) 1
B3143(9) 1
B3144(9) 1
B3145(9) 1
B3146(9) 1
B3147(9) 1
B3148(9) 1
B3149(9) 1
B3150(8) 1
B3151(10) 0
B3152(10) 1
B3153(10) 1
B3154(10) 1
B3155(10) 0
B3156(10) 1
B3157(10) 0
B3158(10) 0
B3159(10) 1
B3160(10) 1
B3161(10) 0
B3162(10) 1
B3163(10) 0
B3164(10) 0
B3165(10) 0
B3166(10) 1
B3167(7) 0
B3168(10) 0
B3169(10) 0
B3170(10) 0
B3171(10) 0
B3172(10) 1
B3173(11) 0
B3174(11) 0
B3175(11) 0
B3176(11) 1
B3177(11) 1
B3178(11) 0
B3179(11) 1
B3180(11) 1
B3181(11) 1
B3182(11) 1
B3183(11) 0
B3184(11) 0
B3185(11) 0
B3186(11) 1
B3187(11) 1
B3188(11) 0
B3189(11) 1
B3190(11) 0
B3191(11) 1
B3192(11) 0
B3193(11) 0
B3194(11) 0
B3195(11) 0
B3196(11) 1
B3197(11) 1
B3198(11) 0
B3199(12) 0
B3200(12) 0
B3201(12) 0
B3202(12) 1
B3203(15) 1
B3204(11) 1
B3205(11) 0
B3206(11) 1
B3207(11) 0
B3208(15) 1
B3209(15) 0
B3210(15) 1
B3211(7) 0
B3212(15) 0
B3213(11) 0
B3214(11) 0
B3215(11) 0
B3216(11) 1
B3217(11) 0
B3218(11) 0
B3219(12) 1
B3220(12) 0
B3221(12) 1
B3222(12) 0
B3223(12) 0
B3224(12) 0
B3225(12) 0
B3226(12) 0
B3227(12) 1
B3228(12) 0
B3229(12) 0
B3230(12) 0
B3231(12) 1
B3232(12) 1
B3233(12) 0
B3234(12) 0
B3235(12) 0
B3236(12) 0
B3237(12) 0
B3238(12) 0
B3239(12) 0
B3240(12) 0
B3241(11) 1
B3242(11) 1
B3243(11) 0
B3244(11) 0
B3245(11) 0
B3246(11) 0
B3247(11) 0
B3248(11) 0
B3249(11) 0
B3250(11) 0
B3251(11) 1
B3252(11) 1
B3253(11) 0
B3254(11) 0
B3255(11) 0
B3256(11) 0
B3257(11) 0
B3258(11) 0
B3259(11) 0
B3260(11) 0
B3261(6) 0
B3262(12) 0
B3263(11) 1
B3264(11) 1
B3265(11) 0
B3266(11) 0
B3267(11) 0
B3268(11) 0
B3269(8) 0
B3270(9) 0
B3271(8) 0
B3272(9) 0
B3273(8) 0
B3274(9) 0
B3275(8) 0
B3276(10) 0
B3277(10) 0
B3278(10) 0
B3279(10) 0
B3280(7) 1
B3281(10) 0
B3282(10) 0
B3283(10) 0
B3284(8) 1
B3285(9) 0
B3286(9) 0
B3287(9) 0
B3288(10) 0
B3289(10) 0
B3290(10) 0
B3291(10) 0
B3292(10) 0
B3293(10) 0
B3294(8) 1
B3295(8) 1
B3296(15) 1
B3297(15) 1
B3298(15) 0
B3299(8) 0
B3300(9) 0
B3301(9) 0
B3302(9) 0
B3303(10) 0
B3304(5) 1
B3305(3) 0
C3306(1) 0
C3307(1) 0
C3308(1) 0
C3309(1) 0
C3310(1) 0
C3311(1) 0
C3312(1) 0
C3313(1) 0
C3314(1) 0
C3315(1) 0
C3316(1) 0
C3317(1) 0
